p tw 96 376
1 9
2 10
3 11
4 12
5 13
6 14
7 15
8 16
9 25
9 31
9 36
9 38
9 40
10 24
10 29
10 34
10 38
10 39
11 19
11 23
11 33
11 34
11 35
12 17
12 27
12 28
12 29
12 30
13 18
13 22
13 27
13 31
13 32
14 17
14 18
14 19
14 20
14 21
15 22
15 23
15 24
15 25
15 26
16 20
16 28
16 33
16 36
16 37
17 18
17 19
17 20
17 21
17 27
17 28
17 29
17 30
18 19
18 20
18 21
18 22
18 27
18 31
18 32
19 20
19 21
19 23
19 33
19 34
19 35
20 21
20 28
20 33
20 36
20 37
21 41
21 42
21 43
21 44
21 45
22 23
22 24
22 25
22 26
22 27
22 31
22 32
23 24
23 25
23 26
23 33
23 34
23 35
24 25
24 26
24 29
24 34
24 38
24 39
25 26
25 31
25 36
25 38
25 40
26 46
26 47
26 48
26 49
26 50
27 28
27 29
27 30
27 31
27 32
28 29
28 30
28 33
28 36
28 37
29 30
29 34
29 38
29 39
30 41
30 51
30 52
30 53
30 54
31 32
31 36
31 38
31 40
32 42
32 46
32 51
32 55
32 56
33 34
33 35
33 36
33 37
34 35
34 38
34 39
35 43
35 47
35 57
35 58
35 59
36 37
36 38
36 40
37 44
37 52
37 57
37 60
37 61
38 39
38 40
39 48
39 53
39 58
39 62
39 63
40 49
40 55
40 60
40 62
40 64
41 42
41 43
41 44
41 45
41 51
41 52
41 53
41 54
42 43
42 44
42 45
42 46
42 51
42 55
42 56
43 44
43 45
43 47
43 57
43 58
43 59
44 45
44 52
44 57
44 60
44 61
45 65
45 66
45 67
45 68
45 69
46 47
46 48
46 49
46 50
46 51
46 55
46 56
47 48
47 49
47 50
47 57
47 58
47 59
48 49
48 50
48 53
48 58
48 62
48 63
49 50
49 55
49 60
49 62
49 64
50 70
50 71
50 72
50 73
50 74
51 52
51 53
51 54
51 55
51 56
52 53
52 54
52 57
52 60
52 61
53 54
53 58
53 62
53 63
54 65
54 75
54 76
54 77
54 78
55 56
55 60
55 62
55 64
56 66
56 70
56 75
56 79
56 80
57 58
57 59
57 60
57 61
58 59
58 62
58 63
59 67
59 71
59 81
59 82
59 83
60 61
60 62
60 64
61 68
61 76
61 81
61 84
61 85
62 63
62 64
63 72
63 77
63 82
63 86
63 87
64 73
64 79
64 84
64 86
64 88
65 66
65 67
65 68
65 69
65 75
65 76
65 77
65 78
66 67
66 68
66 69
66 70
66 75
66 79
66 80
67 68
67 69
67 71
67 81
67 82
67 83
68 69
68 76
68 81
68 84
68 85
69 91
70 71
70 72
70 73
70 74
70 75
70 79
70 80
71 72
71 73
71 74
71 81
71 82
71 83
72 73
72 74
72 77
72 82
72 86
72 87
73 74
73 79
73 84
73 86
73 88
74 90
75 76
75 77
75 78
75 79
75 80
76 77
76 78
76 81
76 84
76 85
77 78
77 82
77 86
77 87
78 93
79 80
79 84
79 86
79 88
80 92
81 82
81 83
81 84
81 85
82 83
82 86
82 87
83 94
84 85
84 86
84 88
85 89
86 87
86 88
87 95
88 96
